9
-1 74 67 89 8 61 53 57 56 
94 -1 92 97 58 37 85 22 14 
99 7 -1 25 27 41 49 41 76 
74 74 37 -1 56 56 33 97 40 
78 1 45 39 -1 40 71 91 67 
59 41 19 94 82 -1 17 83 39 
13 51 28 58 100 55 -1 90 2 
28 99 82 90 18 27 42 -1 81 
22 89 29 53 58 59 9 85 -1 
